p cnf 89 300
2 3 -4 0
-2 -3 -4 0
2 -3 4 0
-2 3 4 0
-5 -1 0
-5 4 0
1 -4 5 0
6 -7 -8 0
-6 7 -8 0
6 7 8 0
-6 -7 8 0
-9 -5 0
-9 8 0
5 -8 9 0
-11 -9 0
-11 -10 0
9 10 11 0
-14 -12 0
-14 -13 0
12 13 14 0
15 -4 -16 0
-15 4 -16 0
15 4 16 0
-15 -4 16 0
17 16 0
17 -16 0
-14 17 -18 0
14 -17 -18 0
-14 -17 18 0
14 17 18 0
-20 4 0
-20 -19 0
-4 19 20 0
-21 4 0
-21 -6 0
-4 6 21 0
-20 -21 -22 0
20 21 -22 0
-20 21 22 0
20 -21 22 0
-18 -22 -23 0
18 22 -23 0
-18 22 23 0
18 -22 23 0
-24 -14 -25 0
24 14 -25 0
-24 14 25 0
24 -14 25 0
26 -25 0
26 4 0
25 -4 -26 0
-28 27 0
-28 -24 0
-27 24 28 0
29 -28 0
29 10 0
28 -10 -29 0
-26 -29 -30 0
26 29 -30 0
-26 29 30 0
26 -29 30 0
31 23 0
31 30 0
-23 -30 -31 0
3 8 -32 0
-3 -8 -32 0
3 -8 32 0
-3 8 32 0
-12 32 -33 0
12 -32 -33 0
-12 -32 33 0
12 32 33 0
20 33 -34 0
-20 -33 -34 0
20 -33 34 0
-20 33 34 0
35 15 0
35 -16 0
-15 16 -35 0
-36 34 0
-36 -35 0
-34 35 36 0
31 36 -37 0
-31 -36 -37 0
31 -36 37 0
-31 36 37 0
-38 3 0
-38 8 0
-3 -8 38 0
39 -38 0
39 2 0
38 -2 -39 0
40 37 0
40 39 0
-37 -39 -40 0
-41 27 0
-41 14 0
-27 -14 41 0
3 22 -42 0
-3 -22 -42 0
3 -22 42 0
-3 22 42 0
43 -42 0
43 8 0
42 -8 -43 0
44 -41 0
44 43 0
41 -43 -44 0
14 12 -45 0
-14 -12 -45 0
14 -12 45 0
-14 12 45 0
-46 -33 0
-46 12 0
33 -12 46 0
-47 46 0
-47 -1 0
-46 1 47 0
48 47 0
48 -5 0
-47 5 -48 0
-49 -45 0
-49 48 0
45 -48 49 0
50 -47 0
50 -9 0
47 9 -50 0
-51 -49 0
-51 -50 0
49 50 51 0
44 51 -52 0
-44 -51 -52 0
44 -51 52 0
-44 51 52 0
53 40 0
53 -52 0
-40 52 -53 0
54 11 0
54 -53 0
-11 53 -54 0
-55 3 0
-55 -47 0
-3 47 55 0
-19 55 -56 0
19 -55 -56 0
-19 -55 56 0
19 55 56 0
57 -56 0
57 -22 0
56 22 -57 0
-58 57 0
-58 56 0
-57 -56 58 0
-59 -7 0
-59 3 0
7 -3 59 0
59 60 -61 0
-59 -60 -61 0
59 -60 61 0
-59 60 61 0
28 -15 -62 0
-28 15 -62 0
28 15 62 0
-28 -15 62 0
-63 12 0
-63 62 0
-12 -62 63 0
-64 3 0
-64 -63 0
-3 63 64 0
-64 46 -65 0
64 -46 -65 0
-64 -46 65 0
64 46 65 0
-66 61 0
-66 65 0
-61 -65 66 0
67 58 0
67 66 0
-58 -66 -67 0
6 21 -68 0
-6 -21 -68 0
6 -21 68 0
-6 21 68 0
-69 24 0
-69 -8 0
-24 8 69 0
-70 -68 0
-70 -69 0
68 69 70 0
71 -14 0
71 -7 0
14 7 -71 0
1 71 -72 0
-1 -71 -72 0
1 -71 72 0
-1 71 72 0
70 -72 -73 0
-70 72 -73 0
70 72 73 0
-70 -72 73 0
74 67 0
74 -73 0
-67 73 -74 0
-75 16 0
-75 -63 0
-16 63 75 0
76 46 0
76 3 0
-46 -3 -76 0
77 1 0
77 5 0
-1 -5 -77 0
78 -77 0
78 5 0
77 -5 -78 0
-76 78 -79 0
76 -78 -79 0
-76 -78 79 0
76 78 79 0
80 75 0
80 79 0
-75 -79 -80 0
-81 7 0
-81 10 0
-7 -10 81 0
-12 46 -82 0
12 -46 -82 0
-12 -46 82 0
12 46 82 0
-84 57 0
-84 83 0
-57 -83 84 0
-85 82 0
-85 84 0
-82 -84 85 0
86 -81 0
86 -85 0
81 85 -86 0
-80 -86 -87 0
80 86 -87 0
-80 86 87 0
80 -86 87 0
88 74 0
88 87 0
-74 -87 -88 0
89 54 0
89 88 0
-54 -88 -89 0
-54 -31 11 -5 78 0
-71 66 -55 -65 -16 -67 0
-36 -80 0
42 89 0
-51 43 13 70 -2 0
-10 -52 69 28 46 0
17 -1 45 83 -12 76 0
-23 57 4 0
73 60 0
29 -11 84 -10 -55 -61 0
-10 -56 0
62 -19 12 -32 66 72 0
72 25 85 1 -22 -5 0
-82 51 0
26 -24 0
-27 -40 -54 41 -80 0
76 -69 -17 0
-61 -38 18 60 0
-1 -30 -43 -5 -61 0
85 -1 52 -89 72 0
57 32 -30 -29 65 0
58 -50 -23 20 -28 0
40 -39 -3 -73 0
27 88 0
-70 -53 45 20 -40 25 0
-72 -18 -64 -16 13 7 0
-69 17 0
33 41 75 72 0
-32 -78 -45 43 0
-36 89 -81 0
3 -23 85 57 0
-73 -42 -87 -20 -54 4 0
23 49 -77 -7 -64 0
42 -47 10 -33 88 0
29 38 -9 78 0
60 -16 -17 -54 0
66 -36 75 81 0
83 33 67 0
-47 -73 74 -39 6 0
89 26 7 33 -70 0
-3 20 50 45 0
77 -29 50 -85 88 0
-10 71 -89 -40 -60 0
-37 25 57 82 -8 -22 0
27 32 72 0
-53 63 -87 0
69 74 68 23 -4 -31 0
-38 -39 -36 11 0
65 -88 0
53 -65 0
89 0
